NAME          SIMPLE_QP
ROWS
 N  OBJ
 L  CON1
COLUMNS
    X1        OBJ                  0
    X1        CON1                 1
    X2        OBJ                  0
    X2        CON1                 1
RHS
    RHS1      CON1                 1
BOUNDS
 LO BND1      X1                   0
 LO BND1      X2                   0
QUADOBJ
    X1        X1                   2
    X2        X2                   2
ENDATA